
Gurobi 11.0.3 (linux64) logging started Thu Apr 16 04:22:21 2026

Set parameter LogFile to value "tree/results/blsc/blsc_depth-3_run-1/Full MIP/LogFile_FullModel.txt"
Gurobi Optimizer version 11.0.3 build v11.0.3rc0 (linux64 - "CentOS Linux 7 (Core)")

CPU model: Intel(R) Xeon(R) Platinum 8260 CPU @ 2.40GHz, instruction set [SSE2|AVX|AVX2|AVX512]
Thread count: 96 physical cores, 192 logical processors, using up to 32 threads

Optimize a model with 37570 rows, 26320 columns and 219183 nonzeros
Model fingerprint: 0xff0df08f
Model has 3744 general constraints
Variable types: 15064 continuous, 11256 integer (11256 binary)
Coefficient statistics:
  Matrix range     [2e-03, 1e+04]
  Objective range  [2e-03, 1e+04]
  Bounds range     [1e+00, 5e+02]
  RHS range        [1e-04, 5e+02]

User MIP start produced solution with objective -260399 (0.11s)
Loaded user MIP start with objective -260399

Presolve added 3736 rows and 11232 columns
Presolve time: 0.29s
Presolved: 41306 rows, 37552 columns, 241624 nonzeros
Presolved model has 11232 SOS constraint(s)
Variable types: 15064 continuous, 22488 integer (22488 binary)

Deterministic concurrent LP optimizer: primal and dual simplex (primal and dual model)
Showing primal log only...

Root relaxation presolved: 41299 rows, 37545 columns, 241624 nonzeros

Concurrent spin time: 0.75s (can be avoided by choosing Method=3)

Solved with primal simplex

Root relaxation: objective 1.000000e+00, 6798 iterations, 2.30 seconds (2.14 work units)
Total elapsed time = 6.42s (DegenMoves)

    Nodes    |    Current Node    |     Objective Bounds      |     Work
 Expl Unexpl |  Obj  Depth IntInf | Incumbent    BestBd   Gap | It/Node Time

     0     0    1.00000    0 2627 -260399.23    1.00000   100%     -    7s
     0     2    1.00000    0 2627 -260399.23    1.00000   100%     -  123s
     1     4    1.00000    1 2626 -260399.23    1.00000   100%   2.0  127s
     7    16    1.00000    3 2633 -260399.23    1.00000   100%   712  130s
    15    32    1.00000    4 2632 -260399.23    1.00000   100%   334  140s
H   31    64                    -82799.26282    1.00000   100%   278  222s
H   35    64                       0.6987179    1.00000  43.1%   262  222s
    63    96    1.00000    6 2656    0.69872    1.00000  43.1%   228  258s
H   95   128                       0.7051282    1.00000  41.8%   274  465s
H  101   128                       0.7307692    1.00000  36.8%   261  465s
   127   160    1.00000    8 2662    0.73077    1.00000  36.8%   238  475s
   159   192    1.00000    9 2666    0.73077    1.00000  36.8%   651 1084s
   191   225    1.00000   10 2762    0.73077    1.00000  36.8%   603 1165s
   224   432    1.00000   11 2799    0.73077    1.00000  36.8%  2196 1486s
   431   596    1.00000   16 3256    0.73077    1.00000  36.8%  1343 1609s
   595   991    1.00000   19 3208    0.73077    1.00000  36.8%  1735 2254s
   990  3365    1.00000   25 3204    0.73077    1.00000  36.8%  2101 2661s
  3364  5419    1.00000   70  929    0.73077    1.00000  36.8%  2151 3600s
H 3923  5419                       0.7457265    1.00000  34.1%  2120 3600s

Explored 5418 nodes (11327632 simplex iterations) in 3600.35 seconds (3364.35 work units)
Thread count was 32 (of 192 available processors)

Solution count 6: 0.745726 0.730769 0.705128 ... -260399

Time limit reached
Best objective 7.457264957265e-01, best bound 1.000000000000e+00, gap 34.0974%

User-callback calls 2332930, time in user-callback 11.20 sec
